NAME : CMT4X
TYPE : MVRPB
DIMENSION : 151
VEHICLES : 7
CAPACITY : 20000
EDGE_WEIGHT_TYPE : EXACT_2D
NODE_COORD_SECTION
1 35 35
2 41 49
3 35 17
4 55 45
5 55 20
6 15 30
7 25 30
8 20 50
9 10 43
10 55 60
11 30 60
12 20 65
13 50 35
14 30 25
15 15 10
16 30 5
17 10 20
18 5 30
19 20 40
20 15 60
21 45 65
22 45 20
23 45 10
24 55 5
25 65 35
26 65 20
27 45 30
28 35 40
29 41 37
30 64 42
31 40 60
32 31 52
33 35 69
34 53 52
35 65 55
36 63 65
37 2 60
38 20 20
39 5 5
40 60 12
41 40 25
42 42 7
43 24 12
44 23 3
45 11 14
46 6 38
47 2 48
48 8 56
49 13 52
50 6 68
51 47 47
52 49 58
53 27 43
54 37 31
55 57 29
56 63 23
57 53 12
58 32 12
59 36 26
60 21 24
61 17 34
62 12 24
63 24 58
64 27 69
65 15 77
66 62 77
67 49 73
68 67 5
69 56 39
70 37 47
71 37 56
72 57 68
73 47 16
74 44 17
75 46 13
76 49 11
77 49 42
78 53 43
79 61 52
80 57 48
81 56 37
82 55 54
83 15 47
84 14 37
85 11 31
86 16 22
87 4 18
88 28 18
89 26 52
90 26 35
91 31 67
92 15 19
93 22 22
94 18 24
95 26 27
96 25 24
97 22 27
98 25 21
99 19 21
100 20 26
101 18 18
102 37 52
103 49 49
104 52 64
105 20 26
106 40 30
107 21 47
108 17 63
109 31 62
110 52 33
111 51 21
112 42 41
113 31 32
114 5 25
115 12 42
116 36 16
117 52 41
118 27 23
119 17 33
120 13 13
121 57 58
122 62 42
123 42 57
124 16 57
125 8 52
126 7 38
127 27 68
128 30 48
129 43 67
130 58 48
131 58 27
132 37 69
133 38 46
134 46 10
135 61 33
136 62 63
137 63 69
138 32 22
139 45 35
140 59 15
141 5 6
142 10 17
143 21 10
144 5 64
145 30 15
146 39 10
147 32 39
148 25 32
149 25 55
150 48 28
151 56 37
PICKUP_AND_DELIVERY_SECTION
1 0 0 10000000 0 0 0
2 0 0 10000000 0 163 837
3 0 0 10000000 0 360 340
4 0 0 10000000 0 236 1064
5 0 0 10000000 0 1209 691
6 0 0 10000000 0 1300 1300
7 0 0 10000000 0 50 250
8 0 0 10000000 0 300 200
9 0 0 10000000 0 691 209
10 0 0 10000000 0 133 1467
11 0 0 10000000 0 800 800
12 0 0 10000000 0 831 369
13 0 0 10000000 0 570 1330
14 0 0 10000000 0 383 1917
15 0 0 10000000 0 667 1333
16 0 0 10000000 0 667 133
17 0 0 10000000 0 950 950
18 0 0 10000000 0 167 33
19 0 0 10000000 0 600 600
20 0 0 10000000 0 1275 425
21 0 0 10000000 0 277 623
22 0 0 10000000 0 611 489
23 0 0 10000000 0 1400 400
24 0 0 10000000 0 2636 264
25 0 0 10000000 0 138 162
26 0 0 10000000 0 415 185
27 0 0 10000000 0 567 1133
28 0 0 10000000 0 200 1400
29 0 0 10000000 0 156 1444
30 0 0 10000000 0 309 591
31 0 0 10000000 0 700 1400
32 0 0 10000000 0 1090 1610
33 0 0 10000000 0 1133 1167
34 0 0 10000000 0 21 1079
35 0 0 10000000 0 215 1185
36 0 0 10000000 0 25 775
37 0 0 10000000 0 483 17
38 0 0 10000000 0 0 800
39 0 0 10000000 0 0 1600
40 0 0 10000000 0 2480 620
41 0 0 10000000 0 338 563
42 0 0 10000000 0 417 83
43 0 0 10000000 0 250 250
44 0 0 10000000 0 609 91
45 0 0 10000000 0 386 1414
46 0 0 10000000 0 1347 253
47 0 0 10000000 0 96 4
48 0 0 10000000 0 2314 386
49 0 0 10000000 0 2700 900
50 0 0 10000000 0 2735 265
51 0 0 10000000 0 0 1300
52 0 0 10000000 0 155 845
53 0 0 10000000 0 335 565
54 0 0 10000000 0 227 1173
55 0 0 10000000 0 884 916
56 0 0 10000000 0 127 73
57 0 0 10000000 0 464 136
58 0 0 10000000 0 438 263
59 0 0 10000000 0 500 1300
60 0 0 10000000 0 350 2450
61 0 0 10000000 0 150 150
62 0 0 10000000 0 650 650
63 0 0 10000000 0 1114 786
64 0 0 10000000 0 609 391
65 0 0 10000000 0 725 175
66 0 0 10000000 0 390 1610
67 0 0 10000000 0 822 1678
68 0 0 10000000 0 2313 187
69 0 0 10000000 0 1093 2507
70 0 0 10000000 0 128 472
71 0 0 10000000 0 170 330
72 0 0 10000000 0 243 1257
73 0 0 10000000 0 1649 851
74 0 0 10000000 0 552 348
75 0 0 10000000 0 574 226
76 0 0 10000000 0 1396 404
77 0 0 10000000 0 186 1114
78 0 0 10000000 0 264 1136
79 0 0 10000000 0 44 256
80 0 0 10000000 0 363 1937
81 0 0 10000000 0 204 396
82 0 0 10000000 0 47 2553
83 0 0 10000000 0 1089 511
84 0 0 10000000 0 684 416
85 0 0 10000000 0 452 248
86 0 0 10000000 0 1118 2982
87 0 0 10000000 0 2722 778
88 0 0 10000000 0 929 1671
89 0 0 10000000 0 450 450
90 0 0 10000000 0 386 1114
91 0 0 10000000 0 161 139
92 0 0 10000000 0 21 79
93 0 0 10000000 0 0 200
94 0 0 10000000 0 550 1650
95 0 0 10000000 0 100 2600
96 0 0 10000000 0 80 1920
97 0 0 10000000 0 204 896
98 0 0 10000000 0 192 1008
99 0 0 10000000 0 95 905
100 0 0 10000000 0 208 692
101 0 0 10000000 0 0 1700
102 0 0 10000000 0 202 498
103 0 0 10000000 0 0 3000
104 0 0 10000000 0 300 1300
105 0 0 10000000 0 208 692
106 0 0 10000000 0 525 1575
107 0 0 10000000 0 830 670
108 0 0 10000000 0 1387 513
109 0 0 10000000 0 1150 1150
110 0 0 10000000 0 402 698
111 0 0 10000000 0 294 206
112 0 0 10000000 0 45 1855
113 0 0 10000000 0 91 2809
114 0 0 10000000 0 1840 460
115 0 0 10000000 0 1500 600
116 0 0 10000000 0 556 444
117 0 0 10000000 0 317 1183
118 0 0 10000000 0 44 256
119 0 0 10000000 0 1988 2112
120 0 0 10000000 0 0 900
121 0 0 10000000 0 48 2752
122 0 0 10000000 0 258 542
123 0 0 10000000 0 211 589
124 0 0 10000000 0 1151 449
125 0 0 10000000 0 846 154
126 0 0 10000000 0 2284 516
127 0 0 10000000 0 422 278
128 0 0 10000000 0 563 938
129 0 0 10000000 0 501 899
130 0 0 10000000 0 103 497
131 0 0 10000000 0 1016 884
132 0 0 10000000 0 510 590
133 0 0 10000000 0 209 991
134 0 0 10000000 0 1800 500
135 0 0 10000000 0 1193 1407
136 0 0 10000000 0 27 1673
137 0 0 10000000 0 52 548
138 0 0 10000000 0 281 619
139 0 0 10000000 0 333 1167
140 0 0 10000000 0 1044 356
141 0 0 10000000 0 117 583
142 0 0 10000000 0 1112 1588
143 0 0 10000000 0 681 619
144 0 0 10000000 0 1014 86
145 0 0 10000000 0 800 800
146 0 0 10000000 0 744 256
147 0 0 10000000 0 90 410
148 0 0 10000000 0 547 1953
149 0 0 10000000 0 927 773
150 0 0 10000000 0 750 1050
151 0 0 10000000 0 339 661
DEPOT_SECTION
1 
-1
EOF
